(set-logic HORN)
(declare-fun !inv6 (Int (Array Int Int) (Array Int Int) Int (Array Int Int) (Array Int Int) (Array Int Int) (Array Int Int) (Array Int Int) (Array Int Int) ) Bool)
(declare-fun !inv7 (Int (Array Int Int) (Array Int Int) Int (Array Int Int) (Array Int Int) (Array Int Int) (Array Int Int) (Array Int Int) (Array Int Int) (Array Int Int) ) Bool)
(declare-fun !inv8 (Int (Array Int Int) (Array Int Int) Int (Array Int Int) (Array Int Int) (Array Int Int) (Array Int Int) (Array Int Int) (Array Int Int) (Array Int Int) (Array Int Int) ) Bool)
(declare-fun !inv0 (Int (Array Int Int) (Array Int Int) Int ) Bool)
(declare-fun !inv2 (Int (Array Int Int) (Array Int Int) Int (Array Int Int) (Array Int Int) ) Bool)
(declare-fun !inv1 (Int (Array Int Int) (Array Int Int) Int (Array Int Int) ) Bool)
(declare-fun !inv3 (Int (Array Int Int) (Array Int Int) Int (Array Int Int) (Array Int Int) (Array Int Int) ) Bool)
(declare-fun !inv4 (Int (Array Int Int) (Array Int Int) Int (Array Int Int) (Array Int Int) (Array Int Int) (Array Int Int) ) Bool)
(declare-fun !inv5 (Int (Array Int Int) (Array Int Int) Int (Array Int Int) (Array Int Int) (Array Int Int) (Array Int Int) (Array Int Int) ) Bool)
(assert (forall ((N@0 Int)(a2@0 (Array Int Int))(a1@0 (Array Int Int))(i@1 Int)) (=> (and (> |N@0| 0) (= |i@1| 0)) (!inv0 |N@0| |a1@0| |a2@0| |i@1|))))
(assert (forall ((N@0 Int)(a1@0 (Array Int Int))(a2@0 (Array Int Int))(i@0 Int)(a2@1 (Array Int Int))(i@1 Int)) (=> (and (!inv0 |N@0| |a1@0| |a2@0| |i@0|) (< |i@0| |N@0|) (= |a2@1| (store |a2@0| |i@0| (select |a1@0| |i@0|))) (= |i@1| (+ |i@0| 1))) (!inv0 |N@0| |a1@0| |a2@1| |i@1|))))
(assert (forall ((N@0 Int)(a1@0 (Array Int Int))(a2@0 (Array Int Int))(i@0 Int)(a3@0 (Array Int Int))(i@1 Int)) (=> (and (!inv0 |N@0| |a1@0| |a2@0| |i@0|) (not (< |i@0| |N@0|)) (= |i@1| 0)) (!inv1 |N@0| |a1@0| |a2@0| |i@1| |a3@0|))))
(assert (forall ((N@0 Int)(a1@0 (Array Int Int))(a2@0 (Array Int Int))(i@0 Int)(a3@0 (Array Int Int))(a4@0 (Array Int Int))(i@1 Int)) (=> (and (!inv1 |N@0| |a1@0| |a2@0| |i@0| |a3@0|) (not (< |i@0| |N@0|)) (= |i@1| 0)) (!inv2 |N@0| |a1@0| |a2@0| |i@1| |a3@0| |a4@0|))))
(assert (forall ((N@0 Int)(a1@0 (Array Int Int))(a2@0 (Array Int Int))(i@0 Int)(a3@0 (Array Int Int))(a3@1 (Array Int Int))(i@1 Int)) (=> (and (!inv1 |N@0| |a1@0| |a2@0| |i@0| |a3@0|) (< |i@0| |N@0|) (= |a3@1| (store |a3@0| |i@0| (select |a2@0| |i@0|))) (= |i@1| (+ |i@0| 1))) (!inv1 |N@0| |a1@0| |a2@0| |i@1| |a3@1|))))
(assert (forall ((N@0 Int)(a1@0 (Array Int Int))(a2@0 (Array Int Int))(i@0 Int)(a3@0 (Array Int Int))(a4@0 (Array Int Int))(a4@1 (Array Int Int))(i@1 Int)) (=> (and (!inv2 |N@0| |a1@0| |a2@0| |i@0| |a3@0| |a4@0|) (< |i@0| |N@0|) (= |a4@1| (store |a4@0| |i@0| (select |a3@0| |i@0|))) (= |i@1| (+ |i@0| 1))) (!inv2 |N@0| |a1@0| |a2@0| |i@1| |a3@0| |a4@1|))))
(assert (forall ((N@0 Int)(a1@0 (Array Int Int))(a2@0 (Array Int Int))(i@0 Int)(a3@0 (Array Int Int))(a4@0 (Array Int Int))(a5@0 (Array Int Int))(i@1 Int)) (=> (and (!inv2 |N@0| |a1@0| |a2@0| |i@0| |a3@0| |a4@0|) (not (< |i@0| |N@0|)) (= |i@1| 0)) (!inv3 |N@0| |a1@0| |a2@0| |i@1| |a3@0| |a4@0| |a5@0|))))
(assert (forall ((N@0 Int)(a1@0 (Array Int Int))(a2@0 (Array Int Int))(i@0 Int)(a3@0 (Array Int Int))(a4@0 (Array Int Int))(a5@0 (Array Int Int))(a5@1 (Array Int Int))(i@1 Int)) (=> (and (!inv3 |N@0| |a1@0| |a2@0| |i@0| |a3@0| |a4@0| |a5@0|) (< |i@0| |N@0|) (= |a5@1| (store |a5@0| |i@0| (select |a4@0| |i@0|))) (= |i@1| (+ |i@0| 1))) (!inv3 |N@0| |a1@0| |a2@0| |i@1| |a3@0| |a4@0| |a5@1|))))
(assert (forall ((N@0 Int)(a1@0 (Array Int Int))(a2@0 (Array Int Int))(i@0 Int)(a3@0 (Array Int Int))(a4@0 (Array Int Int))(a5@0 (Array Int Int))(a6@0 (Array Int Int))(i@1 Int)) (=> (and (!inv3 |N@0| |a1@0| |a2@0| |i@0| |a3@0| |a4@0| |a5@0|) (not (< |i@0| |N@0|)) (= |i@1| 0)) (!inv4 |N@0| |a1@0| |a2@0| |i@1| |a3@0| |a4@0| |a5@0| |a6@0|))))
(assert (forall ((N@0 Int)(a1@0 (Array Int Int))(a2@0 (Array Int Int))(i@0 Int)(a3@0 (Array Int Int))(a4@0 (Array Int Int))(a5@0 (Array Int Int))(a6@0 (Array Int Int))(a6@1 (Array Int Int))(i@1 Int)) (=> (and (!inv4 |N@0| |a1@0| |a2@0| |i@0| |a3@0| |a4@0| |a5@0| |a6@0|) (< |i@0| |N@0|) (= |a6@1| (store |a6@0| |i@0| (select |a5@0| |i@0|))) (= |i@1| (+ |i@0| 1))) (!inv4 |N@0| |a1@0| |a2@0| |i@1| |a3@0| |a4@0| |a5@0| |a6@1|))))
(assert (forall ((N@0 Int)(a1@0 (Array Int Int))(a2@0 (Array Int Int))(i@0 Int)(a3@0 (Array Int Int))(a4@0 (Array Int Int))(a5@0 (Array Int Int))(a6@0 (Array Int Int))(a7@0 (Array Int Int))(i@1 Int)) (=> (and (!inv4 |N@0| |a1@0| |a2@0| |i@0| |a3@0| |a4@0| |a5@0| |a6@0|) (not (< |i@0| |N@0|)) (= |i@1| 0)) (!inv5 |N@0| |a1@0| |a2@0| |i@1| |a3@0| |a4@0| |a5@0| |a6@0| |a7@0|))))
(assert (forall ((N@0 Int)(a1@0 (Array Int Int))(a2@0 (Array Int Int))(i@0 Int)(a3@0 (Array Int Int))(a4@0 (Array Int Int))(a5@0 (Array Int Int))(a6@0 (Array Int Int))(a7@0 (Array Int Int))(a7@1 (Array Int Int))(i@1 Int)) (=> (and (!inv5 |N@0| |a1@0| |a2@0| |i@0| |a3@0| |a4@0| |a5@0| |a6@0| |a7@0|) (< |i@0| |N@0|) (= |a7@1| (store |a7@0| |i@0| (select |a6@0| |i@0|))) (= |i@1| (+ |i@0| 1))) (!inv5 |N@0| |a1@0| |a2@0| |i@1| |a3@0| |a4@0| |a5@0| |a6@0| |a7@1|))))
(assert (forall ((N@0 Int)(a1@0 (Array Int Int))(a2@0 (Array Int Int))(i@0 Int)(a3@0 (Array Int Int))(a4@0 (Array Int Int))(a5@0 (Array Int Int))(a6@0 (Array Int Int))(a7@0 (Array Int Int))(a8@0 (Array Int Int))(i@1 Int)) (=> (and (!inv5 |N@0| |a1@0| |a2@0| |i@0| |a3@0| |a4@0| |a5@0| |a6@0| |a7@0|) (not (< |i@0| |N@0|)) (= |i@1| 0)) (!inv6 |N@0| |a1@0| |a2@0| |i@1| |a3@0| |a4@0| |a5@0| |a6@0| |a7@0| |a8@0|))))
(assert (forall ((N@0 Int)(a1@0 (Array Int Int))(a2@0 (Array Int Int))(i@0 Int)(a3@0 (Array Int Int))(a4@0 (Array Int Int))(a5@0 (Array Int Int))(a6@0 (Array Int Int))(a7@0 (Array Int Int))(a8@0 (Array Int Int))(a8@1 (Array Int Int))(i@1 Int)) (=> (and (!inv6 |N@0| |a1@0| |a2@0| |i@0| |a3@0| |a4@0| |a5@0| |a6@0| |a7@0| |a8@0|) (< |i@0| |N@0|) (= |a8@1| (store |a8@0| |i@0| (select |a7@0| |i@0|))) (= |i@1| (+ |i@0| 1))) (!inv6 |N@0| |a1@0| |a2@0| |i@1| |a3@0| |a4@0| |a5@0| |a6@0| |a7@0| |a8@1|))))
(assert (forall ((N@0 Int)(a1@0 (Array Int Int))(a2@0 (Array Int Int))(i@0 Int)(a3@0 (Array Int Int))(a4@0 (Array Int Int))(a5@0 (Array Int Int))(a6@0 (Array Int Int))(a7@0 (Array Int Int))(a8@0 (Array Int Int))(a0@0 (Array Int Int))(i@1 Int)) (=> (and (!inv6 |N@0| |a1@0| |a2@0| |i@0| |a3@0| |a4@0| |a5@0| |a6@0| |a7@0| |a8@0|) (not (< |i@0| |N@0|)) (= |i@1| 0)) (!inv7 |N@0| |a1@0| |a2@0| |i@1| |a3@0| |a4@0| |a5@0| |a6@0| |a7@0| |a8@0| |a0@0|))))
(assert (forall ((a8@0 (Array Int Int))(a0@0 (Array Int Int))(a0@1 (Array Int Int))(i@1 Int)(N@0 Int)(a1@0 (Array Int Int))(a2@0 (Array Int Int))(i@0 Int)(a3@0 (Array Int Int))(a4@0 (Array Int Int))(a5@0 (Array Int Int))(a6@0 (Array Int Int))(a7@0 (Array Int Int))) (=> (and (!inv7 |N@0| |a1@0| |a2@0| |i@0| |a3@0| |a4@0| |a5@0| |a6@0| |a7@0| |a8@0| |a0@0|) (< |i@0| |N@0|) (= |a0@1| (store |a0@0| |i@0| (select |a8@0| |i@0|))) (= |i@1| (+ |i@0| 1))) (!inv7 |N@0| |a1@0| |a2@0| |i@1| |a3@0| |a4@0| |a5@0| |a6@0| |a7@0| |a8@0| |a0@1|))))
(assert (forall ((N@0 Int)(a1@0 (Array Int Int))(a2@0 (Array Int Int))(i@0 Int)(a3@0 (Array Int Int))(a4@0 (Array Int Int))(a5@0 (Array Int Int))(a6@0 (Array Int Int))(a7@0 (Array Int Int))(a8@0 (Array Int Int))(a0@0 (Array Int Int))(a9@0 (Array Int Int))(i@1 Int)) (=> (and (!inv7 |N@0| |a1@0| |a2@0| |i@0| |a3@0| |a4@0| |a5@0| |a6@0| |a7@0| |a8@0| |a0@0|) (not (< |i@0| |N@0|)) (= |i@1| 0)) (!inv8 |N@0| |a1@0| |a2@0| |i@1| |a3@0| |a4@0| |a5@0| |a6@0| |a7@0| |a8@0| |a0@0| |a9@0|))))
(assert (forall ((N@0 Int)(a1@0 (Array Int Int))(a2@0 (Array Int Int))(i@0 Int)(a3@0 (Array Int Int))(a4@0 (Array Int Int))(a5@0 (Array Int Int))(a6@0 (Array Int Int))(a7@0 (Array Int Int))(a8@0 (Array Int Int))(a0@0 (Array Int Int))(a9@0 (Array Int Int))(a0@1 (Array Int Int))(i@1 Int)) (=> (and (!inv8 |N@0| |a1@0| |a2@0| |i@0| |a3@0| |a4@0| |a5@0| |a6@0| |a7@0| |a8@0| |a0@0| |a9@0|) (< |i@0| |N@0|) (= |a0@1| (store |a0@0| |i@0| (select |a9@0| |i@0|))) (= |i@1| (+ |i@0| 1))) (!inv8 |N@0| |a1@0| |a2@0| |i@1| |a3@0| |a4@0| |a5@0| |a6@0| |a7@0| |a8@0| |a0@1| |a9@0|))))
(assert (forall ((N@0 Int)(a1@0 (Array Int Int))(a2@0 (Array Int Int))(i@0 Int)(a3@0 (Array Int Int))(a4@0 (Array Int Int))(a5@0 (Array Int Int))(a6@0 (Array Int Int))(a7@0 (Array Int Int))(a8@0 (Array Int Int))(a0@0 (Array Int Int))(a9@0 (Array Int Int))) (=> (and (!inv8 |N@0| |a1@0| |a2@0| |i@0| |a3@0| |a4@0| |a5@0| |a6@0| |a7@0| |a8@0| |a0@0| |a9@0|) (not (< |i@0| |N@0|)) (not (forall ((x@0 Int)) (=> (and (<= 0 |x@0|) (< |x@0| |N@0|)) (= (select |a1@0| |x@0|) (select |a0@0| |x@0|)))))) false)))
(check-sat)